60
1 0 3
2 0 4
2 1 5
3 0 4
3 1 1
3 2 5
4 0 3
4 1 3
4 2 7
4 3 4
5 0 4
5 1 10
5 2 6
5 3 8
5 4 9
6 0 8
6 1 2
6 2 9
6 3 7
6 4 9
6 5 2
7 0 1
7 1 3
7 2 2
7 3 2
7 4 4
7 5 2
7 6 2
8 0 10
8 1 5
8 2 5
8 3 1
8 4 10
8 5 7
8 6 4
8 7 6
9 0 2
9 1 7
9 2 9
9 3 3
9 4 4
9 5 1
9 6 4
9 7 5
9 8 1
10 0 2
10 1 1
10 2 6
10 3 2
10 4 6
10 5 10
10 6 4
10 7 5
10 8 10
10 9 5
11 0 5
11 1 6
11 2 10
11 3 6
11 4 3
11 5 2
11 6 7
11 7 1
11 8 6
11 9 4
11 10 4
12 0 5
12 1 9
12 2 4
12 3 7
12 4 4
12 5 6
12 6 9
12 7 6
12 8 9
12 9 8
12 10 5
12 11 4
13 0 6
13 1 5
13 2 8
13 3 2
13 4 4
13 5 4
13 6 3
13 7 8
13 8 4
13 9 1
13 10 5
13 11 8
13 12 2
14 0 6
14 1 8
14 2 10
14 3 7
14 4 5
14 5 6
14 6 9
14 7 9
14 8 10
14 9 3
14 10 8
14 11 9
14 12 3
14 13 8
15 0 7
15 1 6
15 2 6
15 3 7
15 4 2
15 5 4
15 6 10
15 7 4
15 8 1
15 9 6
15 10 7
15 11 6
15 12 5
15 13 3
15 14 10
16 0 9
16 1 3
16 2 7
16 3 3
16 4 7
16 5 5
16 6 1
16 7 9
16 8 8
16 9 2
16 10 2
16 11 3
16 12 6
16 13 8
16 14 8
16 15 3
17 0 6
17 1 1
17 2 2
17 3 6
17 4 3
17 5 2
17 6 6
17 7 3
17 8 1
17 9 9
17 10 3
17 11 1
17 12 2
17 13 8
17 14 8
17 15 10
17 16 9
18 0 3
18 1 4
18 2 4
18 3 10
18 4 8
18 5 1
18 6 4
18 7 7
18 8 3
18 9 4
18 10 5
18 11 9
18 12 4
18 13 5
18 14 6
18 15 8
18 16 7
18 17 1
19 0 3
19 1 3
19 2 3
19 3 4
19 4 10
19 5 4
19 6 4
19 7 6
19 8 3
19 9 10
19 10 10
19 11 1
19 12 4
19 13 6
19 14 3
19 15 8
19 16 9
19 17 2
19 18 10
20 0 3
20 1 3
20 2 10
20 3 7
20 4 9
20 5 5
20 6 4
20 7 9
20 8 1
20 9 10
20 10 4
20 11 2
20 12 4
20 13 10
20 14 3
20 15 10
20 16 8
20 17 3
20 18 10
20 19 8
21 0 1
21 1 3
21 2 2
21 3 1
21 4 6
21 5 6
21 6 9
21 7 1
21 8 3
21 9 3
21 10 6
21 11 7
21 12 10
21 13 10
21 14 4
21 15 8
21 16 4
21 17 5
21 18 3
21 19 4
21 20 2
22 0 4
22 1 5
22 2 1
22 3 7
22 4 5
22 5 2
22 6 9
22 7 8
22 8 3
22 9 2
22 10 2
22 11 1
22 12 5
22 13 8
22 14 9
22 15 1
22 16 5
22 17 9
22 18 8
22 19 10
22 20 10
22 21 9
23 0 5
23 1 1
23 2 10
23 3 8
23 4 2
23 5 5
23 6 7
23 7 2
23 8 1
23 9 5
23 10 10
23 11 1
23 12 9
23 13 5
23 14 6
23 15 10
23 16 3
23 17 3
23 18 7
23 19 2
23 20 7
23 21 9
23 22 10
24 0 6
24 1 2
24 2 3
24 3 1
24 4 1
24 5 7
24 6 7
24 7 7
24 8 5
24 9 4
24 10 8
24 11 4
24 12 8
24 13 1
24 14 10
24 15 4
24 16 6
24 17 2
24 18 5
24 19 10
24 20 4
24 21 5
24 22 10
24 23 10
25 0 8
25 1 9
25 2 8
25 3 1
25 4 3
25 5 2
25 6 3
25 7 2
25 8 1
25 9 7
25 10 4
25 11 4
25 12 1
25 13 1
25 14 10
25 15 6
25 16 8
25 17 4
25 18 10
25 19 8
25 20 7
25 21 10
25 22 8
25 23 9
25 24 10
26 0 6
26 1 8
26 2 8
26 3 3
26 4 4
26 5 5
26 6 3
26 7 1
26 8 2
26 9 3
26 10 9
26 11 8
26 12 4
26 13 2
26 14 1
26 15 6
26 16 8
26 17 9
26 18 5
26 19 6
26 20 4
26 21 6
26 22 3
26 23 7
26 24 6
26 25 7
27 0 2
27 1 7
27 2 6
27 3 4
27 4 10
27 5 7
27 6 9
27 7 1
27 8 5
27 9 6
27 10 6
27 11 7
27 12 1
27 13 10
27 14 1
27 15 6
27 16 9
27 17 9
27 18 9
27 19 5
27 20 6
27 21 9
27 22 5
27 23 7
27 24 2
27 25 2
27 26 10
28 0 2
28 1 6
28 2 1
28 3 7
28 4 3
28 5 3
28 6 4
28 7 7
28 8 2
28 9 6
28 10 9
28 11 5
28 12 2
28 13 4
28 14 7
28 15 4
28 16 2
28 17 4
28 18 8
28 19 7
28 20 6
28 21 2
28 22 6
28 23 5
28 24 3
28 25 3
28 26 1
28 27 7
29 0 3
29 1 4
29 2 5
29 3 9
29 4 2
29 5 5
29 6 3
29 7 7
29 8 10
29 9 4
29 10 10
29 11 3
29 12 3
29 13 10
29 14 1
29 15 1
29 16 10
29 17 1
29 18 6
29 19 4
29 20 10
29 21 1
29 22 10
29 23 5
29 24 8
29 25 1
29 26 7
29 27 8
29 28 1
30 0 3
30 1 1
30 2 4
30 3 9
30 4 4
30 5 8
30 6 9
30 7 8
30 8 9
30 9 1
30 10 8
30 11 5
30 12 8
30 13 9
30 14 2
30 15 3
30 16 1
30 17 10
30 18 10
30 19 10
30 20 2
30 21 10
30 22 5
30 23 5
30 24 2
30 25 5
30 26 2
30 27 7
30 28 1
30 29 2
31 0 7
31 1 7
31 2 3
31 3 6
31 4 2
31 5 2
31 6 2
31 7 3
31 8 6
31 9 8
31 10 9
31 11 5
31 12 2
31 13 9
31 14 2
31 15 2
31 16 1
31 17 4
31 18 2
31 19 1
31 20 7
31 21 8
31 22 8
31 23 6
31 24 4
31 25 5
31 26 8
31 27 1
31 28 3
31 29 1
31 30 4
32 0 2
32 1 5
32 2 2
32 3 2
32 4 7
32 5 9
32 6 5
32 7 3
32 8 6
32 9 10
32 10 4
32 11 3
32 12 2
32 13 3
32 14 7
32 15 7
32 16 7
32 17 5
32 18 9
32 19 1
32 20 8
32 21 2
32 22 4
32 23 2
32 24 8
32 25 1
32 26 10
32 27 5
32 28 8
32 29 7
32 30 8
32 31 9
33 0 7
33 1 5
33 2 7
33 3 4
33 4 6
33 5 8
33 6 4
33 7 8
33 8 8
33 9 5
33 10 7
33 11 9
33 12 5
33 13 3
33 14 7
33 15 10
33 16 9
33 17 5
33 18 9
33 19 7
33 20 4
33 21 4
33 22 7
33 23 4
33 24 9
33 25 4
33 26 3
33 27 9
33 28 2
33 29 8
33 30 5
33 31 3
33 32 3
34 0 4
34 1 4
34 2 6
34 3 6
34 4 7
34 5 9
34 6 8
34 7 5
34 8 8
34 9 5
34 10 8
34 11 5
34 12 4
34 13 6
34 14 9
34 15 8
34 16 8
34 17 2
34 18 1
34 19 9
34 20 4
34 21 8
34 22 6
34 23 8
34 24 7
34 25 4
34 26 2
34 27 10
34 28 10
34 29 9
34 30 1
34 31 7
34 32 8
34 33 1
35 0 2
35 1 5
35 2 1
35 3 1
35 4 10
35 5 8
35 6 1
35 7 6
35 8 1
35 9 6
35 10 3
35 11 4
35 12 6
35 13 6
35 14 7
35 15 2
35 16 5
35 17 8
35 18 2
35 19 6
35 20 10
35 21 9
35 22 4
35 23 7
35 24 9
35 25 4
35 26 3
35 27 3
35 28 6
35 29 9
35 30 10
35 31 9
35 32 1
35 33 5
35 34 9
36 0 4
36 1 8
36 2 7
36 3 6
36 4 2
36 5 2
36 6 8
36 7 6
36 8 1
36 9 3
36 10 2
36 11 6
36 12 7
36 13 10
36 14 1
36 15 8
36 16 8
36 17 1
36 18 8
36 19 3
36 20 1
36 21 3
36 22 2
36 23 5
36 24 7
36 25 4
36 26 7
36 27 6
36 28 1
36 29 7
36 30 9
36 31 3
36 32 9
36 33 10
36 34 6
36 35 5
37 0 2
37 1 9
37 2 2
37 3 2
37 4 4
37 5 2
37 6 5
37 7 6
37 8 1
37 9 8
37 10 4
37 11 8
37 12 9
37 13 2
37 14 9
37 15 8
37 16 6
37 17 8
37 18 10
37 19 6
37 20 8
37 21 8
37 22 10
37 23 7
37 24 2
37 25 7
37 26 1
37 27 7
37 28 1
37 29 2
37 30 9
37 31 1
37 32 1
37 33 3
37 34 3
37 35 8
37 36 7
38 0 5
38 1 7
38 2 5
38 3 10
38 4 6
38 5 4
38 6 6
38 7 10
38 8 8
38 9 4
38 10 8
38 11 5
38 12 2
38 13 5
38 14 3
38 15 6
38 16 3
38 17 6
38 18 9
38 19 7
38 20 1
38 21 8
38 22 6
38 23 8
38 24 10
38 25 8
38 26 5
38 27 6
38 28 9
38 29 7
38 30 1
38 31 6
38 32 2
38 33 8
38 34 8
38 35 3
38 36 9
38 37 3
39 0 3
39 1 7
39 2 9
39 3 10
39 4 5
39 5 2
39 6 5
39 7 8
39 8 4
39 9 7
39 10 9
39 11 9
39 12 7
39 13 8
39 14 9
39 15 2
39 16 7
39 17 10
39 18 4
39 19 5
39 20 7
39 21 7
39 22 10
39 23 9
39 24 3
39 25 6
39 26 9
39 27 2
39 28 4
39 29 2
39 30 10
39 31 1
39 32 2
39 33 1
39 34 4
39 35 3
39 36 2
39 37 1
39 38 7
40 0 4
40 1 10
40 2 8
40 3 5
40 4 10
40 5 8
40 6 10
40 7 3
40 8 8
40 9 5
40 10 10
40 11 5
40 12 10
40 13 3
40 14 7
40 15 3
40 16 5
40 17 7
40 18 2
40 19 1
40 20 6
40 21 6
40 22 5
40 23 3
40 24 1
40 25 3
40 26 6
40 27 7
40 28 9
40 29 5
40 30 3
40 31 7
40 32 9
40 33 5
40 34 9
40 35 4
40 36 7
40 37 3
40 38 2
40 39 3
41 0 4
41 1 6
41 2 9
41 3 8
41 4 8
41 5 4
41 6 10
41 7 2
41 8 9
41 9 9
41 10 10
41 11 8
41 12 1
41 13 3
41 14 5
41 15 1
41 16 5
41 17 8
41 18 9
41 19 8
41 20 3
41 21 9
41 22 10
41 23 5
41 24 7
41 25 10
41 26 10
41 27 7
41 28 2
41 29 9
41 30 1
41 31 1
41 32 8
41 33 10
41 34 10
41 35 1
41 36 2
41 37 8
41 38 9
41 39 9
41 40 3
42 0 9
42 1 2
42 2 2
42 3 8
42 4 2
42 5 10
42 6 6
42 7 2
42 8 1
42 9 8
42 10 1
42 11 7
42 12 2
42 13 9
42 14 6
42 15 5
42 16 10
42 17 4
42 18 5
42 19 1
42 20 9
42 21 9
42 22 2
42 23 2
42 24 6
42 25 4
42 26 9
42 27 7
42 28 6
42 29 8
42 30 5
42 31 5
42 32 5
42 33 9
42 34 1
42 35 1
42 36 5
42 37 6
42 38 5
42 39 1
42 40 7
42 41 3
43 0 4
43 1 10
43 2 6
43 3 5
43 4 7
43 5 7
43 6 3
43 7 10
43 8 6
43 9 1
43 10 3
43 11 4
43 12 2
43 13 4
43 14 10
43 15 10
43 16 8
43 17 6
43 18 4
43 19 6
43 20 8
43 21 7
43 22 4
43 23 7
43 24 6
43 25 3
43 26 2
43 27 7
43 28 4
43 29 7
43 30 2
43 31 1
43 32 7
43 33 9
43 34 3
43 35 5
43 36 5
43 37 4
43 38 10
43 39 6
43 40 8
43 41 4
43 42 7
44 0 6
44 1 9
44 2 2
44 3 10
44 4 1
44 5 5
44 6 1
44 7 6
44 8 3
44 9 9
44 10 10
44 11 8
44 12 9
44 13 7
44 14 4
44 15 6
44 16 3
44 17 1
44 18 9
44 19 3
44 20 3
44 21 1
44 22 2
44 23 4
44 24 5
44 25 6
44 26 6
44 27 5
44 28 9
44 29 2
44 30 1
44 31 6
44 32 9
44 33 1
44 34 2
44 35 10
44 36 1
44 37 2
44 38 9
44 39 2
44 40 3
44 41 7
44 42 4
44 43 7
45 0 8
45 1 9
45 2 6
45 3 2
45 4 7
45 5 4
45 6 3
45 7 1
45 8 1
45 9 9
45 10 6
45 11 1
45 12 10
45 13 1
45 14 6
45 15 9
45 16 1
45 17 6
45 18 5
45 19 7
45 20 7
45 21 3
45 22 8
45 23 5
45 24 4
45 25 7
45 26 5
45 27 10
45 28 7
45 29 2
45 30 6
45 31 5
45 32 6
45 33 3
45 34 5
45 35 1
45 36 8
45 37 8
45 38 7
45 39 8
45 40 10
45 41 2
45 42 6
45 43 5
45 44 1
46 0 10
46 1 4
46 2 8
46 3 9
46 4 1
46 5 5
46 6 9
46 7 10
46 8 1
46 9 6
46 10 5
46 11 1
46 12 8
46 13 7
46 14 8
46 15 8
46 16 8
46 17 2
46 18 3
46 19 4
46 20 2
46 21 5
46 22 3
46 23 6
46 24 6
46 25 4
46 26 3
46 27 7
46 28 10
46 29 4
46 30 8
46 31 7
46 32 9
46 33 4
46 34 1
46 35 6
46 36 6
46 37 1
46 38 1
46 39 1
46 40 6
46 41 3
46 42 9
46 43 4
46 44 4
46 45 10
47 0 1
47 1 6
47 2 1
47 3 9
47 4 1
47 5 5
47 6 3
47 7 3
47 8 10
47 9 5
47 10 8
47 11 7
47 12 8
47 13 6
47 14 3
47 15 10
47 16 8
47 17 1
47 18 5
47 19 1
47 20 2
47 21 6
47 22 5
47 23 9
47 24 6
47 25 8
47 26 6
47 27 5
47 28 6
47 29 9
47 30 7
47 31 10
47 32 5
47 33 10
47 34 7
47 35 8
47 36 5
47 37 4
47 38 5
47 39 3
47 40 3
47 41 9
47 42 10
47 43 1
47 44 2
47 45 5
47 46 4
48 0 5
48 1 3
48 2 3
48 3 4
48 4 4
48 5 3
48 6 10
48 7 1
48 8 3
48 9 1
48 10 3
48 11 4
48 12 2
48 13 5
48 14 2
48 15 10
48 16 7
48 17 8
48 18 4
48 19 4
48 20 3
48 21 1
48 22 5
48 23 9
48 24 10
48 25 3
48 26 2
48 27 1
48 28 2
48 29 6
48 30 5
48 31 6
48 32 10
48 33 3
48 34 4
48 35 2
48 36 3
48 37 2
48 38 6
48 39 2
48 40 9
48 41 7
48 42 9
48 43 7
48 44 8
48 45 4
48 46 10
48 47 7
49 0 1
49 1 8
49 2 10
49 3 6
49 4 2
49 5 6
49 6 9
49 7 5
49 8 4
49 9 9
49 10 7
49 11 7
49 12 4
49 13 5
49 14 8
49 15 3
49 16 4
49 17 7
49 18 10
49 19 5
49 20 6
49 21 2
49 22 7
49 23 10
49 24 1
49 25 6
49 26 1
49 27 6
49 28 7
49 29 6
49 30 7
49 31 10
49 32 5
49 33 5
49 34 1
49 35 9
49 36 6
49 37 6
49 38 8
49 39 2
49 40 4
49 41 5
49 42 8
49 43 3
49 44 9
49 45 5
49 46 10
49 47 6
49 48 4
50 0 4
50 1 7
50 2 4
50 3 3
50 4 10
50 5 1
50 6 2
50 7 3
50 8 5
50 9 4
50 10 4
50 11 3
50 12 3
50 13 10
50 14 2
50 15 6
50 16 4
50 17 9
50 18 2
50 19 4
50 20 8
50 21 7
50 22 8
50 23 1
50 24 4
50 25 2
50 26 9
50 27 7
50 28 5
50 29 4
50 30 8
50 31 3
50 32 3
50 33 3
50 34 10
50 35 3
50 36 8
50 37 10
50 38 7
50 39 6
50 40 7
50 41 3
50 42 5
50 43 1
50 44 1
50 45 7
50 46 1
50 47 7
50 48 3
50 49 4
51 0 3
51 1 10
51 2 2
51 3 2
51 4 10
51 5 4
51 6 10
51 7 6
51 8 5
51 9 3
51 10 1
51 11 6
51 12 4
51 13 10
51 14 7
51 15 5
51 16 7
51 17 7
51 18 5
51 19 10
51 20 7
51 21 9
51 22 9
51 23 10
51 24 4
51 25 1
51 26 1
51 27 9
51 28 3
51 29 2
51 30 10
51 31 1
51 32 4
51 33 4
51 34 10
51 35 8
51 36 7
51 37 3
51 38 7
51 39 1
51 40 10
51 41 2
51 42 1
51 43 8
51 44 10
51 45 8
51 46 9
51 47 2
51 48 5
51 49 9
51 50 9
52 0 6
52 1 2
52 2 4
52 3 3
52 4 6
52 5 7
52 6 4
52 7 7
52 8 8
52 9 10
52 10 7
52 11 7
52 12 6
52 13 3
52 14 6
52 15 6
52 16 9
52 17 10
52 18 4
52 19 6
52 20 4
52 21 4
52 22 6
52 23 8
52 24 10
52 25 3
52 26 4
52 27 4
52 28 5
52 29 8
52 30 4
52 31 2
52 32 9
52 33 7
52 34 10
52 35 2
52 36 8
52 37 6
52 38 6
52 39 7
52 40 2
52 41 9
52 42 9
52 43 4
52 44 3
52 45 10
52 46 2
52 47 3
52 48 9
52 49 6
52 50 2
52 51 5
53 0 1
53 1 4
53 2 7
53 3 5
53 4 8
53 5 9
53 6 10
53 7 6
53 8 10
53 9 2
53 10 5
53 11 10
53 12 5
53 13 1
53 14 8
53 15 3
53 16 9
53 17 3
53 18 8
53 19 9
53 20 4
53 21 8
53 22 5
53 23 1
53 24 7
53 25 8
53 26 8
53 27 2
53 28 7
53 29 5
53 30 3
53 31 2
53 32 8
53 33 5
53 34 7
53 35 10
53 36 8
53 37 2
53 38 5
53 39 7
53 40 1
53 41 7
53 42 4
53 43 3
53 44 2
53 45 4
53 46 4
53 47 2
53 48 6
53 49 6
53 50 7
53 51 4
53 52 7
54 0 3
54 1 10
54 2 4
54 3 1
54 4 1
54 5 1
54 6 4
54 7 10
54 8 2
54 9 4
54 10 3
54 11 6
54 12 8
54 13 1
54 14 7
54 15 3
54 16 4
54 17 5
54 18 8
54 19 5
54 20 2
54 21 2
54 22 3
54 23 6
54 24 4
54 25 5
54 26 7
54 27 10
54 28 7
54 29 4
54 30 1
54 31 8
54 32 7
54 33 9
54 34 1
54 35 4
54 36 4
54 37 8
54 38 6
54 39 8
54 40 9
54 41 2
54 42 8
54 43 1
54 44 9
54 45 1
54 46 3
54 47 7
54 48 3
54 49 10
54 50 6
54 51 6
54 52 7
54 53 5
55 0 4
55 1 10
55 2 2
55 3 8
55 4 1
55 5 6
55 6 6
55 7 10
55 8 8
55 9 4
55 10 8
55 11 1
55 12 1
55 13 3
55 14 2
55 15 4
55 16 2
55 17 8
55 18 5
55 19 9
55 20 3
55 21 6
55 22 8
55 23 4
55 24 10
55 25 3
55 26 4
55 27 5
55 28 3
55 29 9
55 30 1
55 31 6
55 32 2
55 33 4
55 34 7
55 35 1
55 36 2
55 37 9
55 38 6
55 39 1
55 40 2
55 41 2
55 42 10
55 43 4
55 44 1
55 45 10
55 46 9
55 47 1
55 48 9
55 49 8
55 50 2
55 51 7
55 52 10
55 53 7
55 54 10
56 0 1
56 1 2
56 2 8
56 3 4
56 4 7
56 5 8
56 6 4
56 7 3
56 8 2
56 9 1
56 10 2
56 11 1
56 12 3
56 13 6
56 14 6
56 15 2
56 16 2
56 17 6
56 18 8
56 19 1
56 20 10
56 21 3
56 22 1
56 23 5
56 24 2
56 25 1
56 26 1
56 27 8
56 28 2
56 29 2
56 30 3
56 31 2
56 32 6
56 33 4
56 34 8
56 35 5
56 36 6
56 37 1
56 38 7
56 39 6
56 40 5
56 41 5
56 42 4
56 43 2
56 44 7
56 45 6
56 46 5
56 47 2
56 48 9
56 49 1
56 50 6
56 51 2
56 52 4
56 53 1
56 54 5
56 55 9
57 0 1
57 1 5
57 2 9
57 3 2
57 4 7
57 5 3
57 6 4
57 7 2
57 8 6
57 9 2
57 10 10
57 11 4
57 12 3
57 13 9
57 14 5
57 15 2
57 16 10
57 17 4
57 18 2
57 19 7
57 20 7
57 21 9
57 22 1
57 23 4
57 24 6
57 25 10
57 26 7
57 27 8
57 28 7
57 29 3
57 30 5
57 31 5
57 32 10
57 33 8
57 34 7
57 35 7
57 36 7
57 37 5
57 38 3
57 39 10
57 40 6
57 41 2
57 42 1
57 43 7
57 44 10
57 45 7
57 46 1
57 47 7
57 48 2
57 49 9
57 50 3
57 51 6
57 52 10
57 53 7
57 54 8
57 55 8
57 56 6
58 0 3
58 1 8
58 2 2
58 3 9
58 4 6
58 5 5
58 6 1
58 7 5
58 8 2
58 9 7
58 10 6
58 11 5
58 12 3
58 13 1
58 14 3
58 15 4
58 16 9
58 17 4
58 18 10
58 19 7
58 20 5
58 21 1
58 22 3
58 23 9
58 24 1
58 25 4
58 26 2
58 27 4
58 28 6
58 29 7
58 30 3
58 31 9
58 32 3
58 33 2
58 34 10
58 35 5
58 36 2
58 37 10
58 38 2
58 39 3
58 40 7
58 41 3
58 42 3
58 43 10
58 44 6
58 45 1
58 46 1
58 47 5
58 48 4
58 49 2
58 50 3
58 51 2
58 52 8
58 53 5
58 54 5
58 55 10
58 56 2
58 57 3
59 0 3
59 1 4
59 2 2
59 3 7
59 4 4
59 5 1
59 6 3
59 7 5
59 8 8
59 9 7
59 10 8
59 11 4
59 12 3
59 13 5
59 14 3
59 15 3
59 16 9
59 17 7
59 18 2
59 19 2
59 20 8
59 21 5
59 22 8
59 23 2
59 24 2
59 25 5
59 26 8
59 27 1
59 28 9
59 29 1
59 30 5
59 31 7
59 32 1
59 33 5
59 34 6
59 35 10
59 36 7
59 37 3
59 38 10
59 39 8
59 40 7
59 41 9
59 42 3
59 43 1
59 44 2
59 45 5
59 46 10
59 47 6
59 48 7
59 49 1
59 50 3
59 51 2
59 52 8
59 53 5
59 54 5
59 55 8
59 56 2
59 57 6
59 58 6
